c Graph colouring
c
c edges;1,2;1,4;1,5;2,3;2,6;3,4;3,7;4,8;5,6;5,8;6,7;7,8
c n = number of vertices = 8
c m = number of edges = 12
c k = number of colours = 1
c vertex i=0,...,n-1 has colour c=0,...,k-1 if variable i*k+c+1 True
c
c We have nk=8 variables and n+(k^2-k)n/2+mk=20 clauses.
c
p cnf 8 20
1 0
2 0
3 0
4 0
5 0
6 0
7 0
8 0
-7 -3 0
-6 -5 0
-4 -1 0
-8 -4 0
-3 -2 0
-4 -3 0
-8 -5 0
-8 -7 0
-7 -6 0
-6 -2 0
-5 -1 0
-2 -1 0
